$$$$$$$$$$$$$$$$$$$$$$$$$$$$$$$$$$$$$$$$$$$$$$$$$$$$$$$$$$$
$ TDB File for the CAO-AL2O3-SIO2-FE-O-MGO SYSTEM
$ FOR OPC CLINKERS 
$ PRODUCED AS PART OF THESIS:
$ "THERMODYNAMIC MODELLING OF PORTLAND CEMENT CLINKERS"
$$$$$$$$$$$$$$$$$$$$$$$$$$$$$$$$$$$$$$$$$$$$$$$$$$$$$$$$$$$
$ ELEMENT DEFINITIONS
$ A=AL2O3, Q=SIO2 
$ L = CAO M=MGO
$ FE = Fe 
$ X=Sulfur 
$ O=oxygen
$$$$$$$$$$$$$$$$$$$$$$$$$$$$$$$$$$$$$$$$$$$$$$$$$$$$$$$$$$$
ELEMENT A   CORUNDUM 101.96  0.0000E+00  0.0000E+00!
ELEMENT /-   ELECTRON_GAS              0.0000E+00  0.0000E+00  0.0000E+00!
ELEMENT VA   VACUUM                    0.0000E+00  0.0000E+00  0.0000E+00!
ELEMENT FE   BCC_A2                    5.5847E+01  4.4890E+03  2.7280E+01!
ELEMENT O    1/2_MOLE_O2(G)            1.5999E+01  4.3410E+03  1.0252E+02!
ELEMENT L BLANK 56.07 0.0 0.0 !
ELEMENT Q BLANK 60.08 0.0 0.0 !
ELEMENT M BLANK  40.3 0.0 0.0 !
ELEMENT X BLANK 32.065 0.0 0.0 ! $ I HAVE NOW ENTERED THIS TO MEAN SULFUR
ELEMENT N BLANK 14.007 0.0 0.0 ! $ THIS IS NITROGEN
$$$$$$$$$$$$$$$$$$$$$$$$$$$$$$$$$$$$$$$$$$$$$$$$$$$$$$$$$$$
SPECIES ALL A0.5 !
SPECIES C3AL L3A1 !
SPECIES CAOL L1 !
SPECIES ASL A0.6666666666666666Q1 !
SPECIES C2A L2.0A1.0 !
SPECIES C2F L2.0FE2O3 !
SPECIES SIL A1Q1 !
SPECIES COR A1.5 !
SPECIES FE+2                        FE1/+2!
SPECIES FE+3                        FE1/+3!
SPECIES FEO                         FE1O1!
SPECIES FEO3/2                      FE1O1.5!
SPECIES FE2O3                       FE2O3 !
SPECIES M2SL M2Q1 !
SPECIES MGOL M1 !
SPECIES O-2                         O1/-2!
SPECIES O2                          O2!
SPECIES O1                          O1!
SPECIES O3                          O3!
SPECIES SO3                         X1O3! $This is SO3
SPECIES SO2                         X1O2! $This is SO2
SPECIES N2                          N2!

SPECIES C2SL L2Q1 !
SPECIES CSL L1Q1 !
SPECIES SIO2L Q1 !
SPECIES CAS2L A0.5L0.5Q1 !

FUNCTION TEMP      0.1 +T**(-1); 6000 N !
FUNCTION RTEMP     0.1 +R#**(-1)*TEMP#; 6000 N !
FUNCTION TMLN      0.1 +1-LN(T); 6000 N !
FUNCTION TLNT      0.1 +T*LN(T); 6000 N !
$$$$$$$$$$$$$$$$$$$$$$$$$$$$$$$$$$$$$$$$$$$$$$$$$$$$$$$$$$$$$$$$$
$-----------------------------------------------
$              SOLID PHASE FUNCTIONS           $
$ solid functions use the 3rd generation function
$ function is split apart to implement maximum 
$ compatability with software.
$-----------------------------------------------
$                 ALPHA C2S                    $
$-----------------------------------------------
$ Einstein Terms $
FUNCTION AC2S0 1 (1 - EXP(-427.508038/T)); 10000 N !
FUNCTION AC2S1 1 (1 - EXP(-174.273816/T)); 10000 N !
FUNCTION AC2S2 1 (1 - EXP(-1235.840109/T)); 10000 N !

FUNCTION GAC2S 1 -2316104.80639131 + 50.6232292353224 * T *
   LN(AC2S2)-0.008061 * T**(2) + 82.5742623603897 * T * LN(AC2S0) +
   41.4017086323043 * T * LN(AC2S1); 3000 N !
$-----------------------------------------------
$                 ALPHA PRIME C2S              $
$-----------------------------------------------
FUNCTION APC2S0 1 (1 - EXP(-1092.028025/T)); 10000 N !
FUNCTION APC2S1 1 (1 - EXP(-315.618264/T)); 10000 N !
FUNCTION APC2S2 1 (1 - EXP(-122.320053/T)); 10000 N !

FUNCTION GAPC2S 1 -2324937.35232995-0.005737 * T**(2) + 15.631497357245 * T *
   LN(APC2S2) + 68.7466957561671 * T * LN(APC2S0) + 90.0024531502235 * T *
   LN(APC2S1); 3000 N !
$-----------------------------------------------
$                 BETA C2S                     $
$-----------------------------------------------
FUNCTION BC2S0 1 (1 - EXP(-2585.222081/T)); 10000 N !
FUNCTION BC2S1 1 (1 - EXP(-835.357211/T)); 10000 N !
FUNCTION BC2S2 1 (1 - EXP(-259.231418/T)); 10000 N !

FUNCTION GBC2S 1 -2328266.62444862-0.008614 * T**(2) + 87.5281189618368 * T *
   LN(BC2S2) + 11.2908490028119 * T * LN(BC2S0) + 75.7757673969417 * T *
   LN(BC2S1); 3000 N !

$-----------------------------------------------
$                GAMMA C2S                     $
$-----------------------------------------------
FUNCTION GC2S0 1 (1 - EXP(-88.647382/T)); 10000 N !
FUNCTION GC2S1 1 (1 - EXP(-257.3199/T)); 10000 N !
FUNCTION GC2S2 1 (1 - EXP(-759.369678/T)); 10000 N !

FUNCTION GGC2S 1 -2336268.1787659 + 103.720069300784 * T *
   LN(GC2S2)-0.001096 * T**(2) + 3.7837123904187 * T * LN(GC2S0) +
   67.0926997075379 * T * LN(GC2S1); 3000 N !
$-----------------------------------------------
$             ALPHA CRISTOBALITE               $
$-----------------------------------------------
FUNCTION ACRIS0 1 (1 - EXP(-100.17/T)); 10000 N !
FUNCTION ACRIS1 1 (1 - EXP(-374.45/T)); 10000 N !
FUNCTION ACRIS2 1 (1 - EXP(-1134/T)); 10000 N !

FUNCTION GACRIS 1 -914067.250936864 + 38.9116850529572 * T * LN(ACRIS2) +
   7.23358247779332 * T * LN(ACRIS0) + 28.6848960326287 * T * LN(ACRIS1);
   6000 N !
$-----------------------------------------------
$             BETA CRISTOBALITE                $
$-----------------------------------------------
FUNCTION BCRIS0 1 (1 - EXP(-125.65/T)); 10000 N !
FUNCTION BCRIS1 1 (1 - EXP(-966.5/T)); 10000 N !

FUNCTION GBCRIS 1 -912412.146717818 + 55.2052048672473 * T * LN(BCRIS1) +
   19.6249586961318 * T * LN(BCRIS0); 6000 N !
$-----------------------------------------------
$             ALPHA QUARTZ                     $
$-----------------------------------------------
FUNCTION AQUARTZ0 1 (1 - EXP(-159.2/T)); 10000 N !
FUNCTION AQUARTZ1 1 (1 - EXP(-524/T)); 10000 N !
FUNCTION AQUARTZ2 1 (1 - EXP(-1421/T)); 10000 N !
FUNCTION AQUARTZ3 1 (1 - EXP(-159.2/T)); 10000 N !
FUNCTION AQUARTZ4 1 (1 - EXP(-524/T)); 10000 N !
FUNCTION AQUARTZ5 1 (1 - EXP(-1421/T)); 10000 N !

FUNCTION GAQUARTZ 1 -917661.326977757-1.076E-12 * T**(5) + 13.3696558899904 *
   T * LN(AQUARTZ0) + 29.0341034625911 * T * LN(AQUARTZ2) +
   32.4264042107976 * T * LN(AQUARTZ1); 847.1 Y
   -914725.826977757-9.16882E+33 * T**(-11) + 32.4264042107976 * T *
   LN(AQUARTZ1) + 13.3696558899904 * T * LN(AQUARTZ0) + 29.0341034625911 *
   T * LN(AQUARTZ2)-2.72959E+16 * T**(-5)-3.87837 * T; 6000 N !
$-----------------------------------------------
$             BETA QUARTZ                      $
$-----------------------------------------------
FUNCTION BQUARTZ0 1 (1 - EXP(-66.518134/T)); 10000 N !
FUNCTION BQUARTZ1 1 (1 - EXP(-1024.54773/T)); 10000 N !

FUNCTION GBQUARTZ 1 -913771.02970493 + 59.8851830700525 * T * LN(BQUARTZ1) +
   14.9449804933267 * T * LN(BQUARTZ0); 6000 N !
$-----------------------------------------------
$             WOLLOSTONITE                     $
$-----------------------------------------------
FUNCTION WCS0 1 (1 - EXP(-39.983404/T)); 10000 N !
FUNCTION WCS1 1 (1 - EXP(-180.16112/T)); 10000 N !
FUNCTION WCS2 1 (1 - EXP(-777.592204/T)); 10000 N !

FUNCTION GWCS 1 -1647683.13184533-0.00094 * T**(2) + 90.0829704062177 * T *
   LN(WCS2) + 0.546908722096884 * T * LN(WCS0) + 34.0286926164046 * T *
   LN(WCS1); 6000 N !
$-----------------------------------------------
$             p-WOLLOSTONITE                   $
$-----------------------------------------------
FUNCTION PCS0 1 (1 - EXP(-398.726519/T)); 10000 N !
FUNCTION PCS1 1 (1 - EXP(-113.639538/T)); 10000 N !
FUNCTION PCS2 1 (1 - EXP(-1779.149444/T)); 10000 N !

FUNCTION GPCS 1 -1640676.04549942-0.004177 * T**(2) + 33.3722325348509 * T *
   LN(PCS2) + 80.0515629429532 * T * LN(PCS0) + 11.1874337167673 * T *
   LN(PCS1); 6000 N !
$-----------------------------------------------
$             m-C3S                            $
$-----------------------------------------------
FUNCTION MC3S0 1 (1 - EXP(-216.554568/T)); 10000 N !
FUNCTION MC3S1 1 (1 - EXP(-502.02771/T)); 10000 N !
FUNCTION MC3S2 1 (1 - EXP(-1253.079747/T)); 10000 N !

FUNCTION GMC3S 1 -2961033.87273599-0.013441 * T**(2) + 48.7852008711029 * T *
   LN(MC3S2) + 67.8853008000012 * T * LN(MC3S0) + 107.81956498144 * T *
   LN(MC3S1); 6000 N !
$-----------------------------------------------
$             t-C3S                            $
$-----------------------------------------------
FUNCTION TC3S0 1 (1 - EXP(-217.322399/T)); 10000 N !
FUNCTION TC3S1 1 (1 - EXP(-511.911036/T)); 10000 N !
FUNCTION TC3S2 1 (1 - EXP(-1306.969635/T)); 10000 N !

FUNCTION GTC3S 1 -2961247.66744604 + 69.1013907314575 * T *
   LN(TC3S0)-0.013446 * T**(2) + 45.7162163162659 * T * LN(TC3S2) +
   109.67630088655 * T * LN(TC3S1); 6000 N !
$-----------------------------------------------
$             r-C3S                            $
$-----------------------------------------------
FUNCTION RC3S0 1 (1 - EXP(-216.897351/T)); 10000 N !
FUNCTION RC3S1 1 (1 - EXP(-502.823393/T)); 10000 N !
FUNCTION RC3S2 1 (1 - EXP(-1257.541676/T)); 10000 N !

FUNCTION GRC3S 1 -2961047.88690192-0.013504 * T**(2) + 48.6141141738092 * T *
   LN(RC3S2) + 68.0676369652173 * T * LN(RC3S0) + 107.809587626298 * T *
   LN(RC3S1); 6000 N !
$-----------------------------------------------
$             r-C3S2                           $
$-----------------------------------------------
FUNCTION RC3S20 1 (1 - EXP(-201.04871065811858/T)); 10000 N !
FUNCTION RC3S21 1 (1 - EXP(-471.75899546616546/T)); 10000 N !
FUNCTION RC3S22 1 (1 - EXP(-1114.209221987958/T)); 10000 N !

FUNCTION GRC3S2 1 -3.9933593273921650E6 + 0.001345157705172196 * T**(2) +
   87.52997635528091 * T * LN(RC3S22) + 81.382016522242722 * T * LN(RC3S20)
   + 130.4109304207976 * T * LN(RC3S21); 6000 N !
$-----------------------------------------------
$             CaO                              $
$-----------------------------------------------
FUNCTION CAO0 1 (1 - EXP(-314.8272896/T)); 10000 N !
FUNCTION CAO1 1 (1 - EXP(-125.12812657/T)); 10000 N !
FUNCTION CAO2 1 (1 - EXP(-598.37301449/T)); 10000 N !

FUNCTION GCAO 1 (-641354.1762949 + 23.6098190734791*T*LN(CAO0) +
   1.2953977159976*T*LN(CAO1) + 24.9813594731112*T*LN(CAO2) -
   0.00174450265*T**2 - 112535.777764825*EXP(-14.85294988 + 0.00298095*T));
   3222 Y (-727925.76111 + 486.19356495*T + 80.5*T*(1 - LN(T)) +
   60.6039483894586*(-281.8126077 + 0.09083109344*T)**(-1)); 6000 N !
$-----------------------------------------------
$             C2F                              $
$-----------------------------------------------
FUNCTION C2F0 1 (1 - EXP(-170155.53632209363/T)); 10000 N !
FUNCTION C2F1 1 (1 - EXP(-215.33754004091622/T)); 10000 N !
FUNCTION C2F2 1 (1 - EXP(-569.493275432429/T)); 10000 N !

FUNCTION GC2F 1.0 (-2.1550282235185245E6 + 9.265379709115280E-11*T*LN(C2F0)
   + 81.07276569312136*T*LN(C2F1) + 143.42315186788068*T*LN(C2F2) -
   0.009779319700444069*T**2); 3000.0 N !
$-----------------------------------------------
$             CF                              $
$-----------------------------------------------  
FUNCTION CF0 1 (1 - EXP(-401.0761361736441/T)); 10000 N !

FUNCTION GCF 1 (-1.506467891684749E6 + 174.5590006453247*T*LN(CF0) -
   0.006385582537395782*T**2); 3000.0 N !
$-----------------------------------------------
$             YELIMITE                         $
$-----------------------------------------------
FUNCTION GYEL 1  +(-8699696.844775759) 
+(3.0/2)*8.31446261815324*(2.149815)*(2024.07)+3*8.31446261815324*T*(2.149815)*LN(1-EXP(-(2024.07)/T)) +
(3.0/2)*8.31446261815324*(12.47757)*(811.53)+
3*8.31446261815324*T*(12.47757)*LN(1-EXP(-(811.53)/T)) 
+(3.0/2)*8.31446261815324*(7.98846)*(329.27)+3*8.31446261815324*T*(7.98846)*LN(1-EXP(-(329.27)/T)) 
+(3.0/2)*8.31446261815324*(0.79089)*(65.79)+
3*8.31446261815324*T*(0.79089)*LN(1-EXP(-(65.79)/T)) 
+(3.0/2)*8.31446261815324*(3.59326)*(145.54)
+3*8.31446261815324*T*(3.59326)*LN(1-EXP(-(145.54)/T))-(0.0401664)/(1*2)*T**(2); 3000  N !

$FUNCTION GYEL 200 10818223.653577043*T**(-1) + 102610.165538863563*T**(0.5)
$-1340.7474340068857*T*(1-LN(T)) - 1.1871961705*T**2 + 0.00019346025486479919*T**3
$-9069137.8277352564 - T*10294.386885768536 ;743.15 Y
$684.240312500000075*T*(1-LN(T)) + -8648688.1230721455 + T*3510.0340465699692; 1800 N !
$-----------------------------------------------
$             ternesite                         $
$-----------------------------------------------
FUNCTION GTERN 1 +(-6234472.40567627)+(3.0/2)*8.31446261815324*(14.015493238809064)*(893.3473613232389)+3*8.31446261815324*T*(14.015493238809064)*LN(1-EXP(-(893.3473613232389)/T)) +(3.0/2)*8.31446261815324*(0.23895298409697957)*(33.535437488814324)+3*8.31446261815324*T*(0.23895298409697957)*LN(1-EXP(-(33.535437488814324)/T)) +(3.0/2)*8.31446261815324*(5.743649018348447)*(189.1730862176863)+3*8.31446261815324*T*(5.743649018348447)*LN(1-EXP(-(189.1730862176863)/T))+(-0.001010766478116633)*T**(2); 3000  N !

$-----------------------------------------------
$             ANHYDRITE                        $
$----------------------------------------------- 

$FUNCTION GANH 273.15  +(-1459675.2026176567)-T*(-712.6548623940591)-(-1223000)/(-2*-1)*T**(-1)
$-(-560.5)/(-0.5*0.5)*T**(0.5)+(128.7)*T*(1-LN(T))-
$(0.04854999)/(1*2)*T**(2); 2000  N !

FUNCTION GANH 200  +(-11096807.135984221)-T*(86066.764769685)
-(-113241753.10718721)/(-2*-1)*T**(-1)+(2149242.043931241)*(1+LN(T))
+(-16502.64477760091)*T*(1-LN(T))-(66.2620565039467)/(1*2)*T**(2)-(-0.14440684361427691)/(2*3)*T**(3)
-(0.0001641592003161061)/(3*4)*T**(4)-(-7.62338139719859e-08)/(4*5)*T**(5); 500  Y 
+(-1478192.0947901632)-T*(-565.5930010735558)-(-2481000.000039924)/(-2*-1)*T**(-1)
+(113.04999999697475)*T*(1-LN(T))-(0.04870000000142712)/(1*2)*T**(2); 1473 Y 
+(-1495197.225807268)-T*(-868.869918463458)+(164.99999998485993)*T*(1-LN(T)); 1733  N !

$-----------------------------------------------
$           LIQUID PHASE FUNCTIONS             $
$ two-state function for liquid
$----------------------------------------------$
$-----------------------------------------------
$              SiO2                            $
$----------------------------------------------$
FUNCTION SIO2L0 1 (1 - EXP(-1308.6/T)); 10000 N !
FUNCTION SIO2L1 1 (1 - EXP(-441.14/T)); 10000 N !
FUNCTION SIO2L2 1 (1 - EXP(-105.58/T)); 10000 N !

FUNCTION ZSIO2L0 1 (1 + EXP(0.120272355042726*(-33226 + 11.184*T)/T)); 10000
   N !

FUNCTION GSIO2L 1 -913715.638421418-8.31446261815324 * T * LN(ZSIO2L0) +
   33.5987434399572 * T * LN(SIO2L0) + 9.12927995473226 * T * LN(SIO2L2) +
   32.1021401686897 * T * LN(SIO2L1); 6000 N !
$-----------------------------------------------
$              CaO                            $
$----------------------------------------------$
FUNCTION CAOL0 1 (1 - EXP(-629.27558/T)); 10000 N !
FUNCTION CAOL1 1 (1 - EXP(-234.0578/T)); 10000 N !

FUNCTION GCAOL 1 (-602797.126970587 + 25.0016778330463*T*LN(CAOL0) +
   24.884873477673*T*LN(CAOL1) - 16.6289252363065*T*LN(ZCAOL0) -
   0.00184186045*T**2); 6000 N !

FUNCTION ZCAOL0 1 (1 + EXP(0.120272355042726*(-63019.5887 + 6.2358*T +
   0.997138715*T*LN(T))/T)); 10000 N !


$-----------------------------------------------
$           GAS PHASE FUNCTIONS                $
$----------------------------------------------$

FUNCTION GSO3GAS 200  +(-431033.025915267)-T*(281.97257308744156)
-(-328660.54837257904)/(-2*-1)*T**(-1)+(5162.12387189907)*(1+LN(T))+(-11.954034729999162)*T*(1-LN(T))
-(0.2298235715113617)/(1*2)*T**(2)
-(-0.0002614879024478562)/(2*3)*T**(3)
-(1.490623689898e-07)/(3*4)*T**(4)-(-3.43088831484366e-11)/(4*5)*T**(5); 1000 Y
+(-365695.762176949)-T*(-303.9134090942614)-(-1801690.944636231)/(-2*-1)*T**(-1)
+(-10817.36374670949)*(1+LN(T))+(91.15097414162351)*T*(1-LN(T))-(-0.00319036064872902)/(1*2)*T**(2)
-(7.03980335919704e-07)/(2*3)*T**(3)-(8.06956394506979e-11)/(3*4)*T**(4)
-(3.740197133030539e-15)/(4*5)*T**(5); 6000  N !

FUNCTION GSO2GAS 200  +(-342038.328066808)-T*(336.3645429435069)
-(-441570.500814514)/(-2*-1)*T**(-1)+(7558.14872833317)*(1+LN(T))+(-19.59639581715044)*T*(1-LN(T))
-(0.1832892061333135)/(1*2)*T**(2)-(-0.00020875917648444212)/(2*3)*T**(3)
-(1.202527983722284e-07)/(3*4)*T**(4)-(-2.8012174021339402e-11)/(4*5)*T**(5); 1000 Y 
+(-278644.89616091904)-T*(-137.6696681649335)-(-937577.502088316)/(-2*-1)*T**(-1)
+(-6861.35097666238)*(1+LN(T))+(63.32479338092131)*T*(1-LN(T))
-(-0.00166234294066211)/(1*2)*T**(2)-(4.70238040810493e-07)/(2*3)*T**(3)
-(-4.53499699970111e-11)/(3*4)*T**(4)-(2.4264185494020024e-15)/(4*5)*T**(5); 6000  N !


FUNCTION GO2GAS     298.15  -6961.74451 -76729.7484*T**(-1)
-51.0057202*T-22.2710136*T*LN(T)-0.0101977469*T**2+1.3236921E-06*T**3;  1000 Y
-13137.5203+525809.556*T**(-1)+25.3200332*T-33.627603*T*LN(T)
-0.00119159274*T**2+1.3561111E-08*T**3;                          3300  Y
-27973.4908+8766421.4*T**(-1)+62.5195726*T-37.9072074*T*LN(T)
-8.50483772E-04*T**2+2.14409777E-08*T**3;                   6000  N !
          
 FUNCTION GO1GAS     298.15  243206.529-42897.0876*T**(-1)
-20.7513421*T-21.0155542*T*LN(T)
 +1.26870532E-4*T**2-1.2313129E-8*T**3;  2950 Y
 +252301.473 - 3973170.33*T**(-1)-51.974853*T-17.2118798*T*LN(T)
 -5.41356254E-4*T**2+7.64520703E-9*T**3;                   6000  N !
 
  FUNCTION GO3GAS     298.15  133772.042-11328.9959*T**(-1)
-84.8602165*T-19.8314069*T*LN(T) 
  -0.0392015696*T**2 + 7.90727187E-6*T**3;  600 Y
120765.524 + 997137.156*T**(-1) +120.113376*T-51.841015*T*LN(T)
-0.0035398314*T**2+3.2064014E-7*T**3; 1500 Y  
115412.196 + 1878139.02*T**(-1)+164.67966*T-58.06974*T*LN(T)
-2.8439903E-4*T**2+5.9565028E-10*T**3;   6000  N !

 FUNCTION GFEOGAS     298.15  241501.965 + 57679.3688*T**(-1)-46.1742716*T- 
28.411703*T*LN(T)-0.00855192864*T**2 + 1.5099707E-6*T**3;  800 Y
          237160.413+446016.49*T**(-1)+14.348854*T-37.647297*T*LN(T)
+2.5380772E-4*T**2-7.0014359E-8*T**3;                          3200  Y
          247039.926 - 1074034.89*T**(-1)-45.0126518*T-29.8873162*T*LN(T)
-0.00207289167*T**2+ 5.0880159E-8*T**3;                   6000  N !
          
 FUNCTION GFEGAS     298.15  405624.097 + 112881.768*T**(-1) + 36.7995658*T 
- 33.007881*T*LN(T)+0.0092758129*T**2-1.3799585E-6*T**3;  950 Y
          414289.373 - 996891.764*T**(-1) - 53.3825193*T 
- 19.9029533*T*LN(T) + 1.3565310E-4*T**2-1.38830908E-7*T**3;    2350  Y
          406336.639 + 2445907.82*T**(-1) - 32.8404885*T 
- 22.1593719*T*LN(T) - 1.41918414E-4*T**2-6.8989725E-8*T**3;   6000  N !

 FUNCTION GOSOL    298.15  +GO2GAS +RLNP*T;                 6000  N !
 FUNCTION RLNP    298.15  +130;                             6000  N !

FUNCTION GN2GAS 200 -91890.779577607362*T**(-1)
-3174.8638987008203*(LN(T)+1)+50.574988921603598*T*(1-LN(T))
+0.035465186585544553*T**(2)-1.9187757641503986e-05*T**(3)+6.6694797759521837e-09*T**(4)
-1.0475059572994296e-12*T**(5)+5910.3368905078605-T*-89.464438895254403 ; 1000 Y
-2443270.33840553*T**(-1)-18618.258809949231*(LN(T)+1)+50.4437099591822*T*(1-LN(T))
+0.0025524238243302502*T**(2)-2.0672735917687152e-07*T**(3)+1.3324733155072793e-11*T**(4)
-4.4148151809704302e-16*T**(5)+106692.65827621649-T*-131.9213437089177; 6000 N !

FUNCTION GSGAS 200 1319.86270304041*T**(-1)
-1600.297832933273*(LN(T)+1)+38.968661063244305*T*(1-LN(T))
+0.024284046347428*T**(2)-1.0446535389562534e-05*T**(3)
+3.369861230453367e-09*T**(4)-5.2255738848769611e-13*T**(5)
+276340.404165318-T*-47.546724725490186 ; 1000 Y
2018033.3424451451*T**(-1)+11963.16981562008*(LN(T)+1)+10.463845057523159*T*(1-LN(T))
-0.001578921470506965*T**(2)-2.2597256538477736e-09*T**(3)+6.6149519929819575e-12*T**(4)
-3.3430427421416728e-16*T**(5)+194143.41522367703-T*129.66934437446051; 6000 N !

$-----------------------------------------
$ Fe-O solid functions
$-----------------------------------------
 FUNCTION GHSERFE    298.15  +1225.7+124.134*T-23.5143*T*LN(T)
          -0.00439752*T**2-5.89269E-08*T**3+77358.5*T**(-1);          1811  Y
          -25383.581+299.31255*T-46*T*LN(T)+2.2960305E+31*T**(-9);    6000  N !
                                                                        
 FUNCTION GFELIQ     298.15 
          +12040.17-6.55843*T-3.6751551E-21*T**7+GHSERFE;             1811  Y
          -10839.7 + 291.302*T - 46*T*LN(T);         6000  N !
                                                                        
 FUNCTION GFEFCC     298.15 
          -1462.4+8.282*T-1.15*T*LN(T)+6.4E-04*T**2+GHSERFE;          1811  Y
           -27098.26+300.25256*T-46*T*LN(T)+2.7885E+31*T**(-9);         6000  N !
                                                                        
 FUNCTION GFE3O2     298.15  
          -858683+827.946*T-137.0089*T*LN(T)+1453810*T**(-1);         3000  N !

 FUNCTION GFEO     298.15  
          -279318+252.848*T-46.12826*T*LN(T)-5.7402984E-3*T**2; 3000  N !

 FUNCTION GFE2O3     298.15  +GFE3O2;                                 6000  N !
                                                                        
 FUNCTION GWUSTITE   298.15  
         -279318+252.848*T-46.12826*T*LN(T)-.0057402984*T**2;         3000  N !
 FUNCTION AWUSTITE   298.15  -55384+27.888*T;                         3000  N !

 FUNCTION BFE3O4     298.15  +46826-27.266*T;                         3000  N !
 FUNCTION CFE3O4     298.15  +120730-20.102*T;                        3000  N !
 FUNCTION DFE3O4     298.15  +402520-30.529*T;                        3000  N !

 FUNCTION GFE3O4     298.15  -161731+144.873*T-24.9879*T*LN(T)
                             -.0011952256*T**2+206520*T**(-1);        3000  N !
 FUNCTION RFE3O4     298.15  +156000-3.37*T;                          3000  N !
 FUNCTION SFE3O4     298.15  +46028.95+38.73173*T-11.58574*T*LN(T)
                             +.006411774*T**2;                        3000  N !

 FUNCTION RR          298.15  +8.31451;                       6000  N ! 
 FUNCTION FLN6        298.15  +1.791759;                      6000  N ! 
 FUNCTION FLN5        298.15  +1.609438;                      6000  N ! 
 FUNCTION FLN3        298.15  +1.098612;                      6000  N ! 
 FUNCTION FLN2        298.15  +0.693147;                      6000  N ! 

 FUNCTION UN_ASS     298.15  0.0;                                       300 N !

$--------------------------------------------
$ Al2O3 
$ new assessment
$--------------------------------------------
FUNCTION ALL0 1 (1 - EXP(-443.38125/T)); 10000 N !
FUNCTION ALL1 1 (1 - EXP(-165.9763/T)); 10000 N !
FUNCTION ALL2 1 (1 - EXP(-1092.388/T)); 10000 N !

FUNCTION ZALL0 1 (1 + EXP(0.120272355042726*(-43735.7183 + 6.2358*T +
   0.2962085013*T*LN(T))/T)); 10000 N !

FUNCTION GALL 1 (-1.6252622037652672E6 + 47.2689970856593*T*LN(ALL0) +
   17.0909636655054*T*LN(ALL1) + 60.356978521133852*T*LN(ALL2) -
   41.5723130907662*T*LN(ZALL0) - 0.00369223705*T**2 +
   1.3242320350000002E-7*T**3); 6000 N !

FUNCTION COR0 1 (1 - EXP(-1067.3396/T)); 10000 N !
FUNCTION COR1 1 (1 - EXP(-636.19021/T)); 10000 N !
FUNCTION COR2 1 (1 - EXP(-312.67623/T)); 10000 N !

FUNCTION GCOR 1 (-1.690780842821017E6 + 39.3927282650856*T*LN(COR0) +
   69.7003662813618*T*LN(COR1) + 15.62384472585121*T*LN(COR2) -
   0.0024049175*T**2 - 1.925204165E-07*T**3); 3000 N !

$--------------------------------------------
$ Binary CaO-Al2O3 compounds 
$
$ Ca3Al2O6 = C3A 
$--------------------------------------------

FUNCTION C3A0 1 (1 - EXP(-1020.13119/T)); 10000 N !
FUNCTION C3A1 1 (1 - EXP(-480.050423/T)); 10000 N !
FUNCTION C3A2 1 (1 - EXP(-195.44252/T)); 10000 N !

FUNCTION GC3A 1 (-3.6265529844279119E6 + 68.264428571996837*T*LN(C3A0) +
   132.4040773488046*T*LN(C3A1) + 73.70876047825546*T*LN(C3A2) -
   0.0057734380100000005*T**2); 6000 N !


$--------------------------------------------
$ C12A7 
$--------------------------------------------
 FUNCTION FEC12A7S1  0.1 +0.26784991; 6000 N !
 FUNCTION TEC12A7S1  0.1 +1156.48654; 6000 N !
 FUNCTION FEC12A7S2  0.1 +0.45839024; 6000 N !
 FUNCTION TEC12A7S2  0.1 +502.7385460; 6000 N !
 FUNCTION FEC12A7S3  0.1 +0.27375985; 6000 N !
 FUNCTION TEC12A7S3  0.1 +206.200874; 6000 N !
 
FUNCTION TEC12A7S   0.1 +FEC12A7S1#*TEC12A7S1#+FEC12A7S2#*TEC12A7S2#
 +FEC12A7S3#*TEC12A7S3#; 6000 N !
 
 FUNCTION GC12A7S11  0.1 +1-1*EXP(-TEC12A7S1#*T**(-1)); 6000 N !
 FUNCTION GC12A7S12  0.1 +1-1*EXP(-TEC12A7S2#*T**(-1)); 6000 N !
 FUNCTION GC12A7S13  0.1 +1-1*EXP(-TEC12A7S3#*T**(-1)); 6000 N !
 
 FUNCTION GEC12A7S2  0.1 +FEC12A7S1#*LN(GC12A7S11#)
     +FEC12A7S2#*LN(GC12A7S12#)+FEC12A7S3#*LN(GC12A7S13#);
	 6000 N  !
	 
 FUNCTION G0C12A7S   0.1 -340246.7522; 6000 N !
 FUNCTION GEC12A7S3  0.1 +3*R#*T*GEC12A7S2#; 6000 N !
 FUNCTION GEC12A7S   0.1 +1.5*R#*TEC12A7S#+GEC12A7S3#; 
     6000 N !
 FUNCTION GTC12A7S   0.1 -9.731079847457630E-04*T**2;
     6000 N !

 FUNCTION GHC12A7S   0.1 +G0C12A7S#+GEC12A7S#+GTC12A7S#; 6000 N !

$--------------------------------------------
$ CaAl2O4 = CA 
$--------------------------------------------

FUNCTION CA0 1 (1 - EXP(-1047.38873/T)); 10000 N !
FUNCTION CA1 1 (1 - EXP(-458.837521/T)); 10000 N !
FUNCTION CA2 1 (1 - EXP(-178.6963/T)); 10000 N !

FUNCTION GCA 1 (-2.349750735736110E6 + 68.6331374908854*T*LN(CA0) +
   68.17219790106598*T*LN(CA1) + 37.79837958926666*T*LN(CA2) -
   0.0006602887929999997*T**2 - 7.06344541E-07*T**3); 6000 N !

$--------------------------------------------
$ CaAl4O7 = CA2
$--------------------------------------------

FUNCTION CA20 1 (1 - EXP(-1109.65247/T)); 10000 N !
FUNCTION CA21 1 (1 - EXP(-508.764148/T)); 10000 N !
FUNCTION CA22 1 (1 - EXP(-209.974186/T)); 10000 N !


FUNCTION GCA2 1 (-4.0392333170626090E6 + 116.99454471479561*T*LN(CA20) +
   115.9414882584303*T*LN(CA21) + 66.38462128029035*T*LN(CA22) -
   0.005173192760000004*T**2); 6000 N !

$--------------------------------------------
$ CaAl12O19 = CA6
$--------------------------------------------
FUNCTION CA60 1 (1 - EXP(-420.6218761876267/T)); 10000 N !
FUNCTION CA61 1 (1 - EXP(-3359.6658182832766/T)); 10000 N !
FUNCTION CA62 1 (1 - EXP(-1101.1852843648976/T)); 10000 N !

FUNCTION GCA6 1 (-1.0812591475462691E7 + 450.3133250660283*T*LN(CA60) +
   26.02792788344765*T*LN(CA61) + 321.84737776464585*T*LN(CA62) -
   0.02480194952447252*T**2); 6000 N !
$--------------------------------------------
$              CAS2
$--------------------------------------------
FUNCTION CAS20 1 (1 - EXP(-658.274391945986/T)); 10000 N !
FUNCTION CAS21 1 (1 - EXP(-1550.5709792008072/T)); 10000 N !
FUNCTION CAS22 1 (1 - EXP(-218.71174550827286/T)); 10000 N !

FUNCTION GCAS2 1 (-4.2642398308864581E6 + 148.8058523578853*T*LN(CAS20) +
   77.225227444567193*T*LN(CAS21) + 98.232082012479691*T*LN(CAS22) -
   0.006150786253147202*T**2); 3000 N !

$--------------------------------------------
$              C2AS
$--------------------------------------------

FUNCTION C2AS0 1 (1 - EXP(-202.6470557907315/T)); 10000 N !
FUNCTION C2AS1 1 (1 - EXP(-505.5199805292467/T)); 10000 N !
FUNCTION C2AS2 1 (1 - EXP(-1197.9679658204354/T)); 10000 N !

FUNCTION GC2AS 1 (-4.0184623119067852E6 + 80.712983752394474*T*LN(C2AS0) +
   119.3772222870370*T*LN(C2AS1) + 99.22999860142122*T*LN(C2AS2) -
   0.005751138264637631*T**2); 3000 N !

$----------------------------------------------
$               SIL
$----------------------------------------------
FUNCTION SIL0 1 (1 - EXP(-153.06149123803786/T)); 10000 N !
FUNCTION SIL1 1 (1 - EXP(-411.0126080405844/T)); 10000 N !
FUNCTION SIL2 1 (1 - EXP(-1030.5334157523516/T)); 10000 N !

FUNCTION GSIL 1 (-2.6118305016655323E6 + 10.2038161601145*T*LN(SIL0) +
   83.2867203476766*T*LN(SIL1) + 106.018727208511*T*LN(SIL2) -
   0.00026505572690566217*T**2); 3000 N !

$------------------------------------------------
$                MGO
$------------------------------------------------
FUNCTION MGO0 1 (1 - EXP(-475.5615692/T)); 10000 N !
FUNCTION MGO1 1 (1 - EXP(-775.50257671/T)); 10000 N !
FUNCTION MGO2 1 (1 - EXP(-259.55358863/T)); 10000 N !

FUNCTION LMGO0 1.0 1 - EXP(-802.97139*T**(-1)); 10000.0 N !
FUNCTION LMGO1 1.0 1 - EXP(-316.655056*T**(-1)); 10000.0 N !
FUNCTION ZLMGO0 1.0 EXP((0.0750535129940371*T*LN(T) + 0.749994351575431*T -
   6969.9520896844)*T**(-1)) + 1; 10000.0 N !

FUNCTION GMGO 1.0 -0.00184931485*T**2 + 26.0930478070804*T*LN(MGO0#) +
   20.7285632023614*T*LN(MGO1#) + 3.06794049945159*T*LN(MGO2#) -
   0.0126333744160015*EXP(0.0032721847*T) - 606454.905049196; 3098.0 Y
   76.5*T*(1 - LN(T)) + 467.52323656*T - 683262.3811 + (3.4001229515421E-5*T
   - 0.0938503045793433)**(-1); 6000.0 N !
FUNCTION GMGOL 1.0 -0.002702806*T**2 + 26.6124946323946*T*LN(LMGO0#) +
   23.2740566808191*T*LN(LMGO1#) - 16.6289252363065*T*LN(ZLMGO0#) -
   569448.443736023; 6000.0 N !

$------------------------------------------------------------------
$               M2S
$------------------------------------------------------------------
FUNCTION M2S0 1 (1 - EXP(-242.33544682642355/T)); 10000 N !
FUNCTION M2S1 1 (1 - EXP(-521.0055871316241/T)); 10000 N !
FUNCTION M2S2 1 (1 - EXP(-1146.8921615705249/T)); 10000 N !

FUNCTION GM2S 1 (-2.1894694547503009E6 + 27.917791527833063*T*LN(M2S0) +
   91.895489221328484*T*LN(M2S1) + 54.773668005547061*T*LN(M2S2) -
   0.0039796137052090595*T**2); 2170 N !

$------------------------------------------------------------------
$               MS
$------------------------------------------------------------------
FUNCTION CMS0 1 (1 - EXP(-436.68607089282295/T)); 10000 N !
FUNCTION CMS1 1 (1 - EXP(-1934.0948767977611/T)); 10000 N !

FUNCTION OMS0 1 (1 - EXP(-294.36130457004157/T)); 10000 N !
FUNCTION OMS1 1 (1 - EXP(-281.1818681281586/T)); 10000 N !
FUNCTION OMS2 1 (1 - EXP(-995.1560351249022/T)); 10000 N !

FUNCTION PMS0 1 (1 - EXP(-587.941408967336/T)); 10000 N !
FUNCTION PMS1 1 (1 - EXP(-0.022730368077856743/T)); 10000 N !
FUNCTION PMS2 1 (1 - EXP(-2956.3805608988832/T)); 10000 N !


FUNCTION GCLMGSIO 298.15 (-1584678 + 544.9199*T + 104.3011*T*(1 - LN(T)) +
   1287726*T**(-1) - 0.009291338*T**2); 3000 N !

FUNCTION GCMS 1 (-1.5573200148785093E6 + 92.741911826035484*T*LN(CMS0) +
   31.974491948419917*T*LN(CMS1) - 0.0038364494166432546*T**2); 3000 N !

FUNCTION GOMS 1 (-1.5564437638799032E6 + 49.405882892834079*T*LN(OMS0) +
   9.503439739060052E-6*T*LN(OMS1) + 75.305714024248420*T*LN(OMS2) -
   0.0038853173054983477*T**2); 3000 N !

FUNCTION GPMS 1 (-1.5425518874130727E6 + 102.020640125967*T*LN(PMS0) +
   3.1298114477056090*T*LN(PMS1) + 19.56676914813782*T*LN(PMS2) -
   0.0017363618331370015*T**2); 3000 N !

$-----------------------------------------------------------------
$               DIOP, AKER, MER 